* #variable= 265 #constraint= 247
* Constraints for _ZNSt8_Rb_treeIiSt4pairIKifESt10_Select1stIS2_ESt4lessIiESaIS2_EE8_M_eraseEPSt13_Rb_tree_nodeIS2_E
min:  +17000 x52 +4450 x88 +8500 x131 +17600 x226 +400 x227 +400 x228 +400 x229 +400 x230 +400 x231 +400 x232 -21 x94 -1 x77 -1 x202 -21 x233 -21 x234 -21 x235 -21 x236 -21 x237 -21 x238 -21 x239 -21 x240 -21 x241 -21 x242 -21 x243 -21 x244 -21 x245 -21 x246 -21 x247 -21 x248 -21 x249 -21 x250 -21 x251 -21 x252 -21 x253 -21 x254 -21 x255 -21 x256 -21 x257 -21 x258 -21 x259 -21 x260 -21 x261 -21 x262 -21 x263 -21 x264 -21 x265;
* Callee-save Registers
 -1 x2 -1 x7 -1 x8 -1 x9 -1 x10 -1 x11 -1 x12 -1 x13 -1 x14 -1 x15 -1 x16 -1 x17 -1 x18 -1 x19 -1 x20 -1 x21 -1 x22 -1 x23 -1 x24 -1 x25 -1 x26 -1 x27 -1 x28 -1 x29 -1 x30 -1 x31 -1 x32 -1 x33 -1 x34 -1 x35 -1 x36 -1 x37 -1 x38 -1 x39 -1 x40 -1 x41 -1 x42 -1 x43 -1 x44 -1 x45 -1 x46 -1 x47 -1 x48 -1 x49 -1 x50 -1 x51 -1 x54 -1 x59 -1 x60 -1 x61 -1 x62 -1 x63 -1 x64 -1 x65 -1 x66 -1 x67 -1 x68 -1 x69 -1 x70 -1 x71 -1 x72 -1 x73 -1 x74 -1 x75 -1 x76 -1 x77 -1 x78 -1 x79 -1 x80 -1 x81 -1 x82 -1 x83 -1 x84 -1 x85 -1 x86 -1 x87 -1 x91 -1 x103 -1 x104 -1 x105 -1 x106 -1 x107 -1 x108 -1 x109 -1 x110 -1 x111 -1 x112 -1 x113 -1 x114 -1 x115 -1 x116 -1 x117 -1 x118 -1 x119 -1 x120 -1 x121 -1 x122 -1 x123 -1 x124 -1 x125 -1 x126 -1 x127 -1 x128 -1 x129 -1 x130 -1 x133 -1 x138 -1 x139 -1 x140 -1 x141 -1 x142 -1 x143 -1 x144 -1 x145 -1 x146 -1 x147 -1 x148 -1 x149 -1 x150 -1 x151 -1 x152 -1 x153 -1 x154 -1 x155 -1 x156 -1 x157 -1 x158 -1 x159 -1 x160 -1 x161 -1 x162 -1 x163 -1 x164 -1 x165 -1 x166 -1 x167 -1 x168 -1 x169 -1 x170 -1 x171 -1 x172 -1 x173 -1 x174 -1 x175 -1 x176 -1 x177 -1 x178 -1 x179 -1 x180 -1 x181 -1 x182 -1 x183 -1 x184 -1 x185 -1 x186 -1 x187 -1 x188 -1 x189 -1 x190 -1 x191 -1 x192 -1 x193 -1 x194 -1 x195 -1 x196 -1 x197 -1 x198 -1 x199 -1 x200 -1 x201 -1 x202 -1 x203 -1 x204 -1 x205 -1 x206 -1 x207 -1 x208 -1 x209 -1 x210 -1 x211 -1 x212 -1 x213 -1 x214 -1 x215 -1 x216 -1 x217 -1 x218 -1 x219 -1 x220 -1 x221 -1 x222 -1 x223 -1 x224 -1 x225 +194 x227 >= 0;
 -1 ~x2 -1 ~x7 -1 ~x8 -1 ~x9 -1 ~x10 -1 ~x11 -1 ~x12 -1 ~x13 -1 ~x14 -1 ~x15 -1 ~x16 -1 ~x17 -1 ~x18 -1 ~x19 -1 ~x20 -1 ~x21 -1 ~x22 -1 ~x23 -1 ~x24 -1 ~x25 -1 ~x26 -1 ~x27 -1 ~x28 -1 ~x29 -1 ~x30 -1 ~x31 -1 ~x32 -1 ~x33 -1 ~x34 -1 ~x35 -1 ~x36 -1 ~x37 -1 ~x38 -1 ~x39 -1 ~x40 -1 ~x41 -1 ~x42 -1 ~x43 -1 ~x44 -1 ~x45 -1 ~x46 -1 ~x47 -1 ~x48 -1 ~x49 -1 ~x50 -1 ~x51 -1 ~x54 -1 ~x59 -1 ~x60 -1 ~x61 -1 ~x62 -1 ~x63 -1 ~x64 -1 ~x65 -1 ~x66 -1 ~x67 -1 ~x68 -1 ~x69 -1 ~x70 -1 ~x71 -1 ~x72 -1 ~x73 -1 ~x74 -1 ~x75 -1 ~x76 -1 ~x77 -1 ~x78 -1 ~x79 -1 ~x80 -1 ~x81 -1 ~x82 -1 ~x83 -1 ~x84 -1 ~x85 -1 ~x86 -1 ~x87 -1 ~x91 -1 ~x103 -1 ~x104 -1 ~x105 -1 ~x106 -1 ~x107 -1 ~x108 -1 ~x109 -1 ~x110 -1 ~x111 -1 ~x112 -1 ~x113 -1 ~x114 -1 ~x115 -1 ~x116 -1 ~x117 -1 ~x118 -1 ~x119 -1 ~x120 -1 ~x121 -1 ~x122 -1 ~x123 -1 ~x124 -1 ~x125 -1 ~x126 -1 ~x127 -1 ~x128 -1 ~x129 -1 ~x130 -1 ~x133 -1 ~x138 -1 ~x139 -1 ~x140 -1 ~x141 -1 ~x142 -1 ~x143 -1 ~x144 -1 ~x145 -1 ~x146 -1 ~x147 -1 ~x148 -1 ~x149 -1 ~x150 -1 ~x151 -1 ~x152 -1 ~x153 -1 ~x154 -1 ~x155 -1 ~x156 -1 ~x157 -1 ~x158 -1 ~x159 -1 ~x160 -1 ~x161 -1 ~x162 -1 ~x163 -1 ~x164 -1 ~x165 -1 ~x166 -1 ~x167 -1 ~x168 -1 ~x169 -1 ~x170 -1 ~x171 -1 ~x172 -1 ~x173 -1 ~x174 -1 ~x175 -1 ~x176 -1 ~x177 -1 ~x178 -1 ~x179 -1 ~x180 -1 ~x181 -1 ~x182 -1 ~x183 -1 ~x184 -1 ~x185 -1 ~x186 -1 ~x187 -1 ~x188 -1 ~x189 -1 ~x190 -1 ~x191 -1 ~x192 -1 ~x193 -1 ~x194 -1 ~x195 -1 ~x196 -1 ~x197 -1 ~x198 -1 ~x199 -1 ~x200 -1 ~x201 -1 ~x202 -1 ~x203 -1 ~x204 -1 ~x205 -1 ~x206 -1 ~x207 -1 ~x208 -1 ~x209 -1 ~x210 -1 ~x211 -1 ~x212 -1 ~x213 -1 ~x214 -1 ~x215 -1 ~x216 -1 ~x217 -1 ~x218 -1 ~x219 -1 ~x220 -1 ~x221 -1 ~x222 -1 ~x223 -1 ~x224 -1 ~x225 +194 ~x227 >= -193;
 -1 x3 -1 x7 -1 x8 -1 x9 -1 x10 -1 x11 -1 x12 -1 x13 -1 x14 -1 x15 -1 x16 -1 x17 -1 x18 -1 x19 -1 x20 -1 x21 -1 x22 -1 x23 -1 x24 -1 x25 -1 x26 -1 x27 -1 x28 -1 x29 -1 x30 -1 x31 -1 x32 -1 x33 -1 x34 -1 x35 -1 x36 -1 x37 -1 x38 -1 x39 -1 x40 -1 x41 -1 x42 -1 x43 -1 x44 -1 x45 -1 x46 -1 x47 -1 x48 -1 x49 -1 x50 -1 x51 -1 x55 -1 x59 -1 x60 -1 x61 -1 x62 -1 x63 -1 x64 -1 x65 -1 x66 -1 x67 -1 x68 -1 x69 -1 x70 -1 x71 -1 x72 -1 x73 -1 x74 -1 x75 -1 x76 -1 x77 -1 x78 -1 x79 -1 x80 -1 x81 -1 x82 -1 x83 -1 x84 -1 x85 -1 x86 -1 x87 -1 x99 -1 x103 -1 x104 -1 x105 -1 x106 -1 x107 -1 x108 -1 x109 -1 x110 -1 x111 -1 x112 -1 x113 -1 x114 -1 x115 -1 x116 -1 x117 -1 x118 -1 x119 -1 x120 -1 x121 -1 x122 -1 x123 -1 x124 -1 x125 -1 x126 -1 x127 -1 x128 -1 x129 -1 x130 -1 x134 -1 x138 -1 x139 -1 x140 -1 x141 -1 x142 -1 x143 -1 x144 -1 x145 -1 x146 -1 x147 -1 x148 -1 x149 -1 x150 -1 x151 -1 x152 -1 x153 -1 x154 -1 x155 -1 x156 -1 x157 -1 x158 -1 x159 -1 x160 -1 x161 -1 x162 -1 x163 -1 x164 -1 x165 -1 x166 -1 x167 -1 x168 -1 x169 -1 x170 -1 x171 -1 x172 -1 x173 -1 x174 -1 x175 -1 x176 -1 x177 -1 x178 -1 x179 -1 x180 -1 x181 -1 x182 -1 x183 -1 x184 -1 x185 -1 x186 -1 x187 -1 x188 -1 x189 -1 x190 -1 x191 -1 x192 -1 x193 -1 x194 -1 x195 -1 x196 -1 x197 -1 x198 -1 x199 -1 x200 -1 x201 -1 x202 -1 x203 -1 x204 -1 x205 -1 x206 -1 x207 -1 x208 -1 x209 -1 x210 -1 x211 -1 x212 -1 x213 -1 x214 -1 x215 -1 x216 -1 x217 -1 x218 -1 x219 -1 x220 -1 x221 -1 x222 -1 x223 -1 x224 -1 x225 +194 x228 >= 0;
 -1 ~x3 -1 ~x7 -1 ~x8 -1 ~x9 -1 ~x10 -1 ~x11 -1 ~x12 -1 ~x13 -1 ~x14 -1 ~x15 -1 ~x16 -1 ~x17 -1 ~x18 -1 ~x19 -1 ~x20 -1 ~x21 -1 ~x22 -1 ~x23 -1 ~x24 -1 ~x25 -1 ~x26 -1 ~x27 -1 ~x28 -1 ~x29 -1 ~x30 -1 ~x31 -1 ~x32 -1 ~x33 -1 ~x34 -1 ~x35 -1 ~x36 -1 ~x37 -1 ~x38 -1 ~x39 -1 ~x40 -1 ~x41 -1 ~x42 -1 ~x43 -1 ~x44 -1 ~x45 -1 ~x46 -1 ~x47 -1 ~x48 -1 ~x49 -1 ~x50 -1 ~x51 -1 ~x55 -1 ~x59 -1 ~x60 -1 ~x61 -1 ~x62 -1 ~x63 -1 ~x64 -1 ~x65 -1 ~x66 -1 ~x67 -1 ~x68 -1 ~x69 -1 ~x70 -1 ~x71 -1 ~x72 -1 ~x73 -1 ~x74 -1 ~x75 -1 ~x76 -1 ~x77 -1 ~x78 -1 ~x79 -1 ~x80 -1 ~x81 -1 ~x82 -1 ~x83 -1 ~x84 -1 ~x85 -1 ~x86 -1 ~x87 -1 ~x99 -1 ~x103 -1 ~x104 -1 ~x105 -1 ~x106 -1 ~x107 -1 ~x108 -1 ~x109 -1 ~x110 -1 ~x111 -1 ~x112 -1 ~x113 -1 ~x114 -1 ~x115 -1 ~x116 -1 ~x117 -1 ~x118 -1 ~x119 -1 ~x120 -1 ~x121 -1 ~x122 -1 ~x123 -1 ~x124 -1 ~x125 -1 ~x126 -1 ~x127 -1 ~x128 -1 ~x129 -1 ~x130 -1 ~x134 -1 ~x138 -1 ~x139 -1 ~x140 -1 ~x141 -1 ~x142 -1 ~x143 -1 ~x144 -1 ~x145 -1 ~x146 -1 ~x147 -1 ~x148 -1 ~x149 -1 ~x150 -1 ~x151 -1 ~x152 -1 ~x153 -1 ~x154 -1 ~x155 -1 ~x156 -1 ~x157 -1 ~x158 -1 ~x159 -1 ~x160 -1 ~x161 -1 ~x162 -1 ~x163 -1 ~x164 -1 ~x165 -1 ~x166 -1 ~x167 -1 ~x168 -1 ~x169 -1 ~x170 -1 ~x171 -1 ~x172 -1 ~x173 -1 ~x174 -1 ~x175 -1 ~x176 -1 ~x177 -1 ~x178 -1 ~x179 -1 ~x180 -1 ~x181 -1 ~x182 -1 ~x183 -1 ~x184 -1 ~x185 -1 ~x186 -1 ~x187 -1 ~x188 -1 ~x189 -1 ~x190 -1 ~x191 -1 ~x192 -1 ~x193 -1 ~x194 -1 ~x195 -1 ~x196 -1 ~x197 -1 ~x198 -1 ~x199 -1 ~x200 -1 ~x201 -1 ~x202 -1 ~x203 -1 ~x204 -1 ~x205 -1 ~x206 -1 ~x207 -1 ~x208 -1 ~x209 -1 ~x210 -1 ~x211 -1 ~x212 -1 ~x213 -1 ~x214 -1 ~x215 -1 ~x216 -1 ~x217 -1 ~x218 -1 ~x219 -1 ~x220 -1 ~x221 -1 ~x222 -1 ~x223 -1 ~x224 -1 ~x225 +194 ~x228 >= -193;
 -1 x4 -1 x7 -1 x8 -1 x9 -1 x10 -1 x11 -1 x12 -1 x13 -1 x14 -1 x15 -1 x16 -1 x17 -1 x18 -1 x19 -1 x20 -1 x21 -1 x22 -1 x23 -1 x24 -1 x25 -1 x26 -1 x27 -1 x28 -1 x29 -1 x30 -1 x31 -1 x32 -1 x33 -1 x34 -1 x35 -1 x36 -1 x37 -1 x38 -1 x39 -1 x40 -1 x41 -1 x42 -1 x43 -1 x44 -1 x45 -1 x46 -1 x47 -1 x48 -1 x49 -1 x50 -1 x51 -1 x56 -1 x59 -1 x60 -1 x61 -1 x62 -1 x63 -1 x64 -1 x65 -1 x66 -1 x67 -1 x68 -1 x69 -1 x70 -1 x71 -1 x72 -1 x73 -1 x74 -1 x75 -1 x76 -1 x77 -1 x78 -1 x79 -1 x80 -1 x81 -1 x82 -1 x83 -1 x84 -1 x85 -1 x86 -1 x87 -1 x100 -1 x103 -1 x104 -1 x105 -1 x106 -1 x107 -1 x108 -1 x109 -1 x110 -1 x111 -1 x112 -1 x113 -1 x114 -1 x115 -1 x116 -1 x117 -1 x118 -1 x119 -1 x120 -1 x121 -1 x122 -1 x123 -1 x124 -1 x125 -1 x126 -1 x127 -1 x128 -1 x129 -1 x130 -1 x135 -1 x138 -1 x139 -1 x140 -1 x141 -1 x142 -1 x143 -1 x144 -1 x145 -1 x146 -1 x147 -1 x148 -1 x149 -1 x150 -1 x151 -1 x152 -1 x153 -1 x154 -1 x155 -1 x156 -1 x157 -1 x158 -1 x159 -1 x160 -1 x161 -1 x162 -1 x163 -1 x164 -1 x165 -1 x166 -1 x167 -1 x168 -1 x169 -1 x170 -1 x171 -1 x172 -1 x173 -1 x174 -1 x175 -1 x176 -1 x177 -1 x178 -1 x179 -1 x180 -1 x181 -1 x182 -1 x183 -1 x184 -1 x185 -1 x186 -1 x187 -1 x188 -1 x189 -1 x190 -1 x191 -1 x192 -1 x193 -1 x194 -1 x195 -1 x196 -1 x197 -1 x198 -1 x199 -1 x200 -1 x201 -1 x202 -1 x203 -1 x204 -1 x205 -1 x206 -1 x207 -1 x208 -1 x209 -1 x210 -1 x211 -1 x212 -1 x213 -1 x214 -1 x215 -1 x216 -1 x217 -1 x218 -1 x219 -1 x220 -1 x221 -1 x222 -1 x223 -1 x224 -1 x225 +194 x229 >= 0;
 -1 ~x4 -1 ~x7 -1 ~x8 -1 ~x9 -1 ~x10 -1 ~x11 -1 ~x12 -1 ~x13 -1 ~x14 -1 ~x15 -1 ~x16 -1 ~x17 -1 ~x18 -1 ~x19 -1 ~x20 -1 ~x21 -1 ~x22 -1 ~x23 -1 ~x24 -1 ~x25 -1 ~x26 -1 ~x27 -1 ~x28 -1 ~x29 -1 ~x30 -1 ~x31 -1 ~x32 -1 ~x33 -1 ~x34 -1 ~x35 -1 ~x36 -1 ~x37 -1 ~x38 -1 ~x39 -1 ~x40 -1 ~x41 -1 ~x42 -1 ~x43 -1 ~x44 -1 ~x45 -1 ~x46 -1 ~x47 -1 ~x48 -1 ~x49 -1 ~x50 -1 ~x51 -1 ~x56 -1 ~x59 -1 ~x60 -1 ~x61 -1 ~x62 -1 ~x63 -1 ~x64 -1 ~x65 -1 ~x66 -1 ~x67 -1 ~x68 -1 ~x69 -1 ~x70 -1 ~x71 -1 ~x72 -1 ~x73 -1 ~x74 -1 ~x75 -1 ~x76 -1 ~x77 -1 ~x78 -1 ~x79 -1 ~x80 -1 ~x81 -1 ~x82 -1 ~x83 -1 ~x84 -1 ~x85 -1 ~x86 -1 ~x87 -1 ~x100 -1 ~x103 -1 ~x104 -1 ~x105 -1 ~x106 -1 ~x107 -1 ~x108 -1 ~x109 -1 ~x110 -1 ~x111 -1 ~x112 -1 ~x113 -1 ~x114 -1 ~x115 -1 ~x116 -1 ~x117 -1 ~x118 -1 ~x119 -1 ~x120 -1 ~x121 -1 ~x122 -1 ~x123 -1 ~x124 -1 ~x125 -1 ~x126 -1 ~x127 -1 ~x128 -1 ~x129 -1 ~x130 -1 ~x135 -1 ~x138 -1 ~x139 -1 ~x140 -1 ~x141 -1 ~x142 -1 ~x143 -1 ~x144 -1 ~x145 -1 ~x146 -1 ~x147 -1 ~x148 -1 ~x149 -1 ~x150 -1 ~x151 -1 ~x152 -1 ~x153 -1 ~x154 -1 ~x155 -1 ~x156 -1 ~x157 -1 ~x158 -1 ~x159 -1 ~x160 -1 ~x161 -1 ~x162 -1 ~x163 -1 ~x164 -1 ~x165 -1 ~x166 -1 ~x167 -1 ~x168 -1 ~x169 -1 ~x170 -1 ~x171 -1 ~x172 -1 ~x173 -1 ~x174 -1 ~x175 -1 ~x176 -1 ~x177 -1 ~x178 -1 ~x179 -1 ~x180 -1 ~x181 -1 ~x182 -1 ~x183 -1 ~x184 -1 ~x185 -1 ~x186 -1 ~x187 -1 ~x188 -1 ~x189 -1 ~x190 -1 ~x191 -1 ~x192 -1 ~x193 -1 ~x194 -1 ~x195 -1 ~x196 -1 ~x197 -1 ~x198 -1 ~x199 -1 ~x200 -1 ~x201 -1 ~x202 -1 ~x203 -1 ~x204 -1 ~x205 -1 ~x206 -1 ~x207 -1 ~x208 -1 ~x209 -1 ~x210 -1 ~x211 -1 ~x212 -1 ~x213 -1 ~x214 -1 ~x215 -1 ~x216 -1 ~x217 -1 ~x218 -1 ~x219 -1 ~x220 -1 ~x221 -1 ~x222 -1 ~x223 -1 ~x224 -1 ~x225 +194 ~x229 >= -193;
 -1 x5 -1 x7 -1 x8 -1 x9 -1 x10 -1 x11 -1 x12 -1 x13 -1 x14 -1 x15 -1 x16 -1 x17 -1 x18 -1 x19 -1 x20 -1 x21 -1 x22 -1 x23 -1 x24 -1 x25 -1 x26 -1 x27 -1 x28 -1 x29 -1 x30 -1 x31 -1 x32 -1 x33 -1 x34 -1 x35 -1 x36 -1 x37 -1 x38 -1 x39 -1 x40 -1 x41 -1 x42 -1 x43 -1 x44 -1 x45 -1 x46 -1 x47 -1 x48 -1 x49 -1 x50 -1 x51 -1 x57 -1 x59 -1 x60 -1 x61 -1 x62 -1 x63 -1 x64 -1 x65 -1 x66 -1 x67 -1 x68 -1 x69 -1 x70 -1 x71 -1 x72 -1 x73 -1 x74 -1 x75 -1 x76 -1 x77 -1 x78 -1 x79 -1 x80 -1 x81 -1 x82 -1 x83 -1 x84 -1 x85 -1 x86 -1 x87 -1 x101 -1 x103 -1 x104 -1 x105 -1 x106 -1 x107 -1 x108 -1 x109 -1 x110 -1 x111 -1 x112 -1 x113 -1 x114 -1 x115 -1 x116 -1 x117 -1 x118 -1 x119 -1 x120 -1 x121 -1 x122 -1 x123 -1 x124 -1 x125 -1 x126 -1 x127 -1 x128 -1 x129 -1 x130 -1 x136 -1 x138 -1 x139 -1 x140 -1 x141 -1 x142 -1 x143 -1 x144 -1 x145 -1 x146 -1 x147 -1 x148 -1 x149 -1 x150 -1 x151 -1 x152 -1 x153 -1 x154 -1 x155 -1 x156 -1 x157 -1 x158 -1 x159 -1 x160 -1 x161 -1 x162 -1 x163 -1 x164 -1 x165 -1 x166 -1 x167 -1 x168 -1 x169 -1 x170 -1 x171 -1 x172 -1 x173 -1 x174 -1 x175 -1 x176 -1 x177 -1 x178 -1 x179 -1 x180 -1 x181 -1 x182 -1 x183 -1 x184 -1 x185 -1 x186 -1 x187 -1 x188 -1 x189 -1 x190 -1 x191 -1 x192 -1 x193 -1 x194 -1 x195 -1 x196 -1 x197 -1 x198 -1 x199 -1 x200 -1 x201 -1 x202 -1 x203 -1 x204 -1 x205 -1 x206 -1 x207 -1 x208 -1 x209 -1 x210 -1 x211 -1 x212 -1 x213 -1 x214 -1 x215 -1 x216 -1 x217 -1 x218 -1 x219 -1 x220 -1 x221 -1 x222 -1 x223 -1 x224 -1 x225 +194 x230 >= 0;
 -1 ~x5 -1 ~x7 -1 ~x8 -1 ~x9 -1 ~x10 -1 ~x11 -1 ~x12 -1 ~x13 -1 ~x14 -1 ~x15 -1 ~x16 -1 ~x17 -1 ~x18 -1 ~x19 -1 ~x20 -1 ~x21 -1 ~x22 -1 ~x23 -1 ~x24 -1 ~x25 -1 ~x26 -1 ~x27 -1 ~x28 -1 ~x29 -1 ~x30 -1 ~x31 -1 ~x32 -1 ~x33 -1 ~x34 -1 ~x35 -1 ~x36 -1 ~x37 -1 ~x38 -1 ~x39 -1 ~x40 -1 ~x41 -1 ~x42 -1 ~x43 -1 ~x44 -1 ~x45 -1 ~x46 -1 ~x47 -1 ~x48 -1 ~x49 -1 ~x50 -1 ~x51 -1 ~x57 -1 ~x59 -1 ~x60 -1 ~x61 -1 ~x62 -1 ~x63 -1 ~x64 -1 ~x65 -1 ~x66 -1 ~x67 -1 ~x68 -1 ~x69 -1 ~x70 -1 ~x71 -1 ~x72 -1 ~x73 -1 ~x74 -1 ~x75 -1 ~x76 -1 ~x77 -1 ~x78 -1 ~x79 -1 ~x80 -1 ~x81 -1 ~x82 -1 ~x83 -1 ~x84 -1 ~x85 -1 ~x86 -1 ~x87 -1 ~x101 -1 ~x103 -1 ~x104 -1 ~x105 -1 ~x106 -1 ~x107 -1 ~x108 -1 ~x109 -1 ~x110 -1 ~x111 -1 ~x112 -1 ~x113 -1 ~x114 -1 ~x115 -1 ~x116 -1 ~x117 -1 ~x118 -1 ~x119 -1 ~x120 -1 ~x121 -1 ~x122 -1 ~x123 -1 ~x124 -1 ~x125 -1 ~x126 -1 ~x127 -1 ~x128 -1 ~x129 -1 ~x130 -1 ~x136 -1 ~x138 -1 ~x139 -1 ~x140 -1 ~x141 -1 ~x142 -1 ~x143 -1 ~x144 -1 ~x145 -1 ~x146 -1 ~x147 -1 ~x148 -1 ~x149 -1 ~x150 -1 ~x151 -1 ~x152 -1 ~x153 -1 ~x154 -1 ~x155 -1 ~x156 -1 ~x157 -1 ~x158 -1 ~x159 -1 ~x160 -1 ~x161 -1 ~x162 -1 ~x163 -1 ~x164 -1 ~x165 -1 ~x166 -1 ~x167 -1 ~x168 -1 ~x169 -1 ~x170 -1 ~x171 -1 ~x172 -1 ~x173 -1 ~x174 -1 ~x175 -1 ~x176 -1 ~x177 -1 ~x178 -1 ~x179 -1 ~x180 -1 ~x181 -1 ~x182 -1 ~x183 -1 ~x184 -1 ~x185 -1 ~x186 -1 ~x187 -1 ~x188 -1 ~x189 -1 ~x190 -1 ~x191 -1 ~x192 -1 ~x193 -1 ~x194 -1 ~x195 -1 ~x196 -1 ~x197 -1 ~x198 -1 ~x199 -1 ~x200 -1 ~x201 -1 ~x202 -1 ~x203 -1 ~x204 -1 ~x205 -1 ~x206 -1 ~x207 -1 ~x208 -1 ~x209 -1 ~x210 -1 ~x211 -1 ~x212 -1 ~x213 -1 ~x214 -1 ~x215 -1 ~x216 -1 ~x217 -1 ~x218 -1 ~x219 -1 ~x220 -1 ~x221 -1 ~x222 -1 ~x223 -1 ~x224 -1 ~x225 +194 ~x230 >= -193;
 -1 x6 -1 x7 -1 x8 -1 x9 -1 x10 -1 x11 -1 x12 -1 x13 -1 x14 -1 x15 -1 x16 -1 x17 -1 x18 -1 x19 -1 x20 -1 x21 -1 x22 -1 x23 -1 x24 -1 x25 -1 x26 -1 x27 -1 x28 -1 x29 -1 x30 -1 x31 -1 x32 -1 x33 -1 x34 -1 x35 -1 x36 -1 x37 -1 x38 -1 x39 -1 x40 -1 x41 -1 x42 -1 x43 -1 x44 -1 x45 -1 x46 -1 x47 -1 x48 -1 x49 -1 x50 -1 x51 -1 x58 -1 x59 -1 x60 -1 x61 -1 x62 -1 x63 -1 x64 -1 x65 -1 x66 -1 x67 -1 x68 -1 x69 -1 x70 -1 x71 -1 x72 -1 x73 -1 x74 -1 x75 -1 x76 -1 x77 -1 x78 -1 x79 -1 x80 -1 x81 -1 x82 -1 x83 -1 x84 -1 x85 -1 x86 -1 x87 -1 x102 -1 x103 -1 x104 -1 x105 -1 x106 -1 x107 -1 x108 -1 x109 -1 x110 -1 x111 -1 x112 -1 x113 -1 x114 -1 x115 -1 x116 -1 x117 -1 x118 -1 x119 -1 x120 -1 x121 -1 x122 -1 x123 -1 x124 -1 x125 -1 x126 -1 x127 -1 x128 -1 x129 -1 x130 -1 x137 -1 x138 -1 x139 -1 x140 -1 x141 -1 x142 -1 x143 -1 x144 -1 x145 -1 x146 -1 x147 -1 x148 -1 x149 -1 x150 -1 x151 -1 x152 -1 x153 -1 x154 -1 x155 -1 x156 -1 x157 -1 x158 -1 x159 -1 x160 -1 x161 -1 x162 -1 x163 -1 x164 -1 x165 -1 x166 -1 x167 -1 x168 -1 x169 -1 x170 -1 x171 -1 x172 -1 x173 -1 x174 -1 x175 -1 x176 -1 x177 -1 x178 -1 x179 -1 x180 -1 x181 -1 x182 -1 x183 -1 x184 -1 x185 -1 x186 -1 x187 -1 x188 -1 x189 -1 x190 -1 x191 -1 x192 -1 x193 -1 x194 -1 x195 -1 x196 -1 x197 -1 x198 -1 x199 -1 x200 -1 x201 -1 x202 -1 x203 -1 x204 -1 x205 -1 x206 -1 x207 -1 x208 -1 x209 -1 x210 -1 x211 -1 x212 -1 x213 -1 x214 -1 x215 -1 x216 -1 x217 -1 x218 -1 x219 -1 x220 -1 x221 -1 x222 -1 x223 -1 x224 -1 x225 +194 x231 >= 0;
 -1 ~x6 -1 ~x7 -1 ~x8 -1 ~x9 -1 ~x10 -1 ~x11 -1 ~x12 -1 ~x13 -1 ~x14 -1 ~x15 -1 ~x16 -1 ~x17 -1 ~x18 -1 ~x19 -1 ~x20 -1 ~x21 -1 ~x22 -1 ~x23 -1 ~x24 -1 ~x25 -1 ~x26 -1 ~x27 -1 ~x28 -1 ~x29 -1 ~x30 -1 ~x31 -1 ~x32 -1 ~x33 -1 ~x34 -1 ~x35 -1 ~x36 -1 ~x37 -1 ~x38 -1 ~x39 -1 ~x40 -1 ~x41 -1 ~x42 -1 ~x43 -1 ~x44 -1 ~x45 -1 ~x46 -1 ~x47 -1 ~x48 -1 ~x49 -1 ~x50 -1 ~x51 -1 ~x58 -1 ~x59 -1 ~x60 -1 ~x61 -1 ~x62 -1 ~x63 -1 ~x64 -1 ~x65 -1 ~x66 -1 ~x67 -1 ~x68 -1 ~x69 -1 ~x70 -1 ~x71 -1 ~x72 -1 ~x73 -1 ~x74 -1 ~x75 -1 ~x76 -1 ~x77 -1 ~x78 -1 ~x79 -1 ~x80 -1 ~x81 -1 ~x82 -1 ~x83 -1 ~x84 -1 ~x85 -1 ~x86 -1 ~x87 -1 ~x102 -1 ~x103 -1 ~x104 -1 ~x105 -1 ~x106 -1 ~x107 -1 ~x108 -1 ~x109 -1 ~x110 -1 ~x111 -1 ~x112 -1 ~x113 -1 ~x114 -1 ~x115 -1 ~x116 -1 ~x117 -1 ~x118 -1 ~x119 -1 ~x120 -1 ~x121 -1 ~x122 -1 ~x123 -1 ~x124 -1 ~x125 -1 ~x126 -1 ~x127 -1 ~x128 -1 ~x129 -1 ~x130 -1 ~x137 -1 ~x138 -1 ~x139 -1 ~x140 -1 ~x141 -1 ~x142 -1 ~x143 -1 ~x144 -1 ~x145 -1 ~x146 -1 ~x147 -1 ~x148 -1 ~x149 -1 ~x150 -1 ~x151 -1 ~x152 -1 ~x153 -1 ~x154 -1 ~x155 -1 ~x156 -1 ~x157 -1 ~x158 -1 ~x159 -1 ~x160 -1 ~x161 -1 ~x162 -1 ~x163 -1 ~x164 -1 ~x165 -1 ~x166 -1 ~x167 -1 ~x168 -1 ~x169 -1 ~x170 -1 ~x171 -1 ~x172 -1 ~x173 -1 ~x174 -1 ~x175 -1 ~x176 -1 ~x177 -1 ~x178 -1 ~x179 -1 ~x180 -1 ~x181 -1 ~x182 -1 ~x183 -1 ~x184 -1 ~x185 -1 ~x186 -1 ~x187 -1 ~x188 -1 ~x189 -1 ~x190 -1 ~x191 -1 ~x192 -1 ~x193 -1 ~x194 -1 ~x195 -1 ~x196 -1 ~x197 -1 ~x198 -1 ~x199 -1 ~x200 -1 ~x201 -1 ~x202 -1 ~x203 -1 ~x204 -1 ~x205 -1 ~x206 -1 ~x207 -1 ~x208 -1 ~x209 -1 ~x210 -1 ~x211 -1 ~x212 -1 ~x213 -1 ~x214 -1 ~x215 -1 ~x216 -1 ~x217 -1 ~x218 -1 ~x219 -1 ~x220 -1 ~x221 -1 ~x222 -1 ~x223 -1 ~x224 -1 ~x225 +194 ~x231 >= -193;
 -1 x1 -1 x7 -1 x8 -1 x9 -1 x10 -1 x11 -1 x12 -1 x13 -1 x14 -1 x15 -1 x16 -1 x17 -1 x18 -1 x19 -1 x20 -1 x21 -1 x22 -1 x23 -1 x24 -1 x25 -1 x26 -1 x27 -1 x28 -1 x29 -1 x30 -1 x31 -1 x32 -1 x33 -1 x34 -1 x35 -1 x36 -1 x37 -1 x38 -1 x39 -1 x40 -1 x41 -1 x42 -1 x43 -1 x44 -1 x45 -1 x46 -1 x47 -1 x48 -1 x49 -1 x50 -1 x51 -1 x53 -1 x59 -1 x60 -1 x61 -1 x62 -1 x63 -1 x64 -1 x65 -1 x66 -1 x67 -1 x68 -1 x69 -1 x70 -1 x71 -1 x72 -1 x73 -1 x74 -1 x75 -1 x76 -1 x77 -1 x78 -1 x79 -1 x80 -1 x81 -1 x82 -1 x83 -1 x84 -1 x85 -1 x86 -1 x87 -1 x90 -1 x103 -1 x104 -1 x105 -1 x106 -1 x107 -1 x108 -1 x109 -1 x110 -1 x111 -1 x112 -1 x113 -1 x114 -1 x115 -1 x116 -1 x117 -1 x118 -1 x119 -1 x120 -1 x121 -1 x122 -1 x123 -1 x124 -1 x125 -1 x126 -1 x127 -1 x128 -1 x129 -1 x130 -1 x132 -1 x138 -1 x139 -1 x140 -1 x141 -1 x142 -1 x143 -1 x144 -1 x145 -1 x146 -1 x147 -1 x148 -1 x149 -1 x150 -1 x151 -1 x152 -1 x153 -1 x154 -1 x155 -1 x156 -1 x157 -1 x158 -1 x159 -1 x160 -1 x161 -1 x162 -1 x163 -1 x164 -1 x165 -1 x166 -1 x167 -1 x168 -1 x169 -1 x170 -1 x171 -1 x172 -1 x173 -1 x174 -1 x175 -1 x176 -1 x177 -1 x178 -1 x179 -1 x180 -1 x181 -1 x182 -1 x183 -1 x184 -1 x185 -1 x186 -1 x187 -1 x188 -1 x189 -1 x190 -1 x191 -1 x192 -1 x193 -1 x194 -1 x195 -1 x196 -1 x197 -1 x198 -1 x199 -1 x200 -1 x201 -1 x202 -1 x203 -1 x204 -1 x205 -1 x206 -1 x207 -1 x208 -1 x209 -1 x210 -1 x211 -1 x212 -1 x213 -1 x214 -1 x215 -1 x216 -1 x217 -1 x218 -1 x219 -1 x220 -1 x221 -1 x222 -1 x223 -1 x224 -1 x225 +194 x232 >= 0;
 -1 ~x1 -1 ~x7 -1 ~x8 -1 ~x9 -1 ~x10 -1 ~x11 -1 ~x12 -1 ~x13 -1 ~x14 -1 ~x15 -1 ~x16 -1 ~x17 -1 ~x18 -1 ~x19 -1 ~x20 -1 ~x21 -1 ~x22 -1 ~x23 -1 ~x24 -1 ~x25 -1 ~x26 -1 ~x27 -1 ~x28 -1 ~x29 -1 ~x30 -1 ~x31 -1 ~x32 -1 ~x33 -1 ~x34 -1 ~x35 -1 ~x36 -1 ~x37 -1 ~x38 -1 ~x39 -1 ~x40 -1 ~x41 -1 ~x42 -1 ~x43 -1 ~x44 -1 ~x45 -1 ~x46 -1 ~x47 -1 ~x48 -1 ~x49 -1 ~x50 -1 ~x51 -1 ~x53 -1 ~x59 -1 ~x60 -1 ~x61 -1 ~x62 -1 ~x63 -1 ~x64 -1 ~x65 -1 ~x66 -1 ~x67 -1 ~x68 -1 ~x69 -1 ~x70 -1 ~x71 -1 ~x72 -1 ~x73 -1 ~x74 -1 ~x75 -1 ~x76 -1 ~x77 -1 ~x78 -1 ~x79 -1 ~x80 -1 ~x81 -1 ~x82 -1 ~x83 -1 ~x84 -1 ~x85 -1 ~x86 -1 ~x87 -1 ~x90 -1 ~x103 -1 ~x104 -1 ~x105 -1 ~x106 -1 ~x107 -1 ~x108 -1 ~x109 -1 ~x110 -1 ~x111 -1 ~x112 -1 ~x113 -1 ~x114 -1 ~x115 -1 ~x116 -1 ~x117 -1 ~x118 -1 ~x119 -1 ~x120 -1 ~x121 -1 ~x122 -1 ~x123 -1 ~x124 -1 ~x125 -1 ~x126 -1 ~x127 -1 ~x128 -1 ~x129 -1 ~x130 -1 ~x132 -1 ~x138 -1 ~x139 -1 ~x140 -1 ~x141 -1 ~x142 -1 ~x143 -1 ~x144 -1 ~x145 -1 ~x146 -1 ~x147 -1 ~x148 -1 ~x149 -1 ~x150 -1 ~x151 -1 ~x152 -1 ~x153 -1 ~x154 -1 ~x155 -1 ~x156 -1 ~x157 -1 ~x158 -1 ~x159 -1 ~x160 -1 ~x161 -1 ~x162 -1 ~x163 -1 ~x164 -1 ~x165 -1 ~x166 -1 ~x167 -1 ~x168 -1 ~x169 -1 ~x170 -1 ~x171 -1 ~x172 -1 ~x173 -1 ~x174 -1 ~x175 -1 ~x176 -1 ~x177 -1 ~x178 -1 ~x179 -1 ~x180 -1 ~x181 -1 ~x182 -1 ~x183 -1 ~x184 -1 ~x185 -1 ~x186 -1 ~x187 -1 ~x188 -1 ~x189 -1 ~x190 -1 ~x191 -1 ~x192 -1 ~x193 -1 ~x194 -1 ~x195 -1 ~x196 -1 ~x197 -1 ~x198 -1 ~x199 -1 ~x200 -1 ~x201 -1 ~x202 -1 ~x203 -1 ~x204 -1 ~x205 -1 ~x206 -1 ~x207 -1 ~x208 -1 ~x209 -1 ~x210 -1 ~x211 -1 ~x212 -1 ~x213 -1 ~x214 -1 ~x215 -1 ~x216 -1 ~x217 -1 ~x218 -1 ~x219 -1 ~x220 -1 ~x221 -1 ~x222 -1 ~x223 -1 ~x224 -1 ~x225 +194 ~x232 >= -193;
* Move Conjunctions
 +1 x132 +1 x1 -2 x233 >= 0;
 +1 ~x132 +1 ~x1 -2 ~x233 >= -1;
 +1 x133 +1 x2 -2 x234 >= 0;
 +1 ~x133 +1 ~x2 -2 ~x234 >= -1;
 +1 x134 +1 x3 -2 x235 >= 0;
 +1 ~x134 +1 ~x3 -2 ~x235 >= -1;
 +1 x135 +1 x4 -2 x236 >= 0;
 +1 ~x135 +1 ~x4 -2 ~x236 >= -1;
 +1 x136 +1 x5 -2 x237 >= 0;
 +1 ~x136 +1 ~x5 -2 ~x237 >= -1;
 +1 x137 +1 x6 -2 x238 >= 0;
 +1 ~x137 +1 ~x6 -2 ~x238 >= -1;
 +1 x132 +1 x8 -2 x239 >= 0;
 +1 ~x132 +1 ~x8 -2 ~x239 >= -1;
 +1 x133 +1 x9 -2 x240 >= 0;
 +1 ~x133 +1 ~x9 -2 ~x240 >= -1;
 +1 x134 +1 x18 -2 x241 >= 0;
 +1 ~x134 +1 ~x18 -2 ~x241 >= -1;
 +1 x135 +1 x19 -2 x242 >= 0;
 +1 ~x135 +1 ~x19 -2 ~x242 >= -1;
 +1 x136 +1 x20 -2 x243 >= 0;
 +1 ~x136 +1 ~x20 -2 ~x243 >= -1;
 +1 x137 +1 x21 -2 x244 >= 0;
 +1 ~x137 +1 ~x21 -2 ~x244 >= -1;
 +1 x211 +1 x7 -2 x245 >= 0;
 +1 ~x211 +1 ~x7 -2 ~x245 >= -1;
 +1 x212 +1 x8 -2 x246 >= 0;
 +1 ~x212 +1 ~x8 -2 ~x246 >= -1;
 +1 x213 +1 x9 -2 x247 >= 0;
 +1 ~x213 +1 ~x9 -2 ~x247 >= -1;
 +1 x214 +1 x10 -2 x248 >= 0;
 +1 ~x214 +1 ~x10 -2 ~x248 >= -1;
 +1 x215 +1 x11 -2 x249 >= 0;
 +1 ~x215 +1 ~x11 -2 ~x249 >= -1;
 +1 x216 +1 x12 -2 x250 >= 0;
 +1 ~x216 +1 ~x12 -2 ~x250 >= -1;
 +1 x217 +1 x13 -2 x251 >= 0;
 +1 ~x217 +1 ~x13 -2 ~x251 >= -1;
 +1 x218 +1 x14 -2 x252 >= 0;
 +1 ~x218 +1 ~x14 -2 ~x252 >= -1;
 +1 x219 +1 x15 -2 x253 >= 0;
 +1 ~x219 +1 ~x15 -2 ~x253 >= -1;
 +1 x220 +1 x16 -2 x254 >= 0;
 +1 ~x220 +1 ~x16 -2 ~x254 >= -1;
 +1 x221 +1 x17 -2 x255 >= 0;
 +1 ~x221 +1 ~x17 -2 ~x255 >= -1;
 +1 x222 +1 x18 -2 x256 >= 0;
 +1 ~x222 +1 ~x18 -2 ~x256 >= -1;
 +1 x223 +1 x19 -2 x257 >= 0;
 +1 ~x223 +1 ~x19 -2 ~x257 >= -1;
 +1 x224 +1 x20 -2 x258 >= 0;
 +1 ~x224 +1 ~x20 -2 ~x258 >= -1;
 +1 x225 +1 x21 -2 x259 >= 0;
 +1 ~x225 +1 ~x21 -2 ~x259 >= -1;
 +1 x212 +1 x1 -2 x260 >= 0;
 +1 ~x212 +1 ~x1 -2 ~x260 >= -1;
 +1 x213 +1 x2 -2 x261 >= 0;
 +1 ~x213 +1 ~x2 -2 ~x261 >= -1;
 +1 x222 +1 x3 -2 x262 >= 0;
 +1 ~x222 +1 ~x3 -2 ~x262 >= -1;
 +1 x223 +1 x4 -2 x263 >= 0;
 +1 ~x223 +1 ~x4 -2 ~x263 >= -1;
 +1 x224 +1 x5 -2 x264 >= 0;
 +1 ~x224 +1 ~x5 -2 ~x264 >= -1;
 +1 x225 +1 x6 -2 x265 >= 0;
 +1 ~x225 +1 ~x6 -2 ~x265 >= -1;
* Valid Assignment
 +1 x1 +1 x2 +1 x3 +1 x4 +1 x5 +1 x6 +1 x52 = 1;
 +1 x53 +1 x54 +1 x55 +1 x56 +1 x57 +1 x58 +1 x88 = 1;
 +1 x89 +1 x90 +1 x91 +1 x92 +1 x93 +1 x94 +1 x95 +1 x96 +1 x97 +1 x98 +1 x99 +1 x100 +1 x101 +1 x102 +1 x131 = 1;
 +1 x132 +1 x133 +1 x134 +1 x135 +1 x136 +1 x137 +1 x226 = 1;
* Valid Usage
 -1 x52 +1 x7 +1 x8 +1 x9 +1 x10 +1 x11 +1 x12 +1 x13 +1 x14 +1 x15 +1 x16 +1 x17 +1 x18 +1 x19 +1 x20 +1 x21 = 0;
 -1 x52 +1 x22 +1 x23 +1 x24 +1 x25 +1 x26 +1 x27 +1 x28 +1 x29 +1 x30 +1 x31 +1 x32 +1 x33 +1 x34 +1 x35 +1 x36 = 0;
 -1 x52 +1 x37 +1 x38 +1 x39 +1 x40 +1 x41 +1 x42 +1 x43 +1 x44 +1 x45 +1 x46 +1 x47 +1 x48 +1 x49 +1 x50 +1 x51 = 0;
 -1 x88 +1 x59 +1 x60 +1 x61 +1 x62 +1 x63 +1 x64 +1 x65 +1 x66 +1 x67 +1 x68 +1 x69 +1 x70 +1 x71 +1 x72 = 0;
 -1 x88 +1 x73 +1 x74 +1 x75 +1 x76 +1 x77 +1 x78 +1 x79 +1 x80 +1 x81 +1 x82 +1 x83 +1 x84 +1 x85 +1 x86 +1 x87 = 0;
 -1 x131 +1 x103 +1 x104 +1 x105 +1 x106 +1 x107 +1 x108 +1 x109 +1 x110 +1 x111 +1 x112 +1 x113 +1 x114 +1 x115 = 0;
 -1 x131 +1 x116 +1 x117 +1 x118 +1 x119 +1 x120 +1 x121 +1 x122 +1 x123 +1 x124 +1 x125 +1 x126 +1 x127 +1 x128 +1 x129 +1 x130 = 0;
 -1 x226 +1 x138 +1 x139 +1 x140 +1 x141 +1 x142 +1 x143 +1 x144 +1 x145 +1 x146 +1 x147 +1 x148 +1 x149 +1 x150 +1 x151 +1 x152 = 0;
 -1 x226 +1 x153 +1 x154 +1 x155 +1 x156 +1 x157 +1 x158 +1 x159 +1 x160 +1 x161 +1 x162 +1 x163 +1 x164 +1 x165 +1 x166 +1 x167 = 0;
 -1 x226 +1 x168 +1 x169 +1 x170 +1 x171 +1 x172 +1 x173 +1 x174 +1 x175 +1 x176 +1 x177 +1 x178 +1 x179 +1 x180 +1 x181 +1 x182 = 0;
 -1 x226 +1 x183 +1 x184 +1 x185 +1 x186 +1 x187 +1 x188 +1 x189 +1 x190 +1 x191 +1 x192 +1 x193 +1 x194 +1 x195 +1 x196 = 0;
 -1 x226 +1 x197 +1 x198 +1 x199 +1 x200 +1 x201 +1 x202 +1 x203 +1 x204 +1 x205 +1 x206 +1 x207 +1 x208 +1 x209 +1 x210 = 0;
 -1 x226 +1 x211 +1 x212 +1 x213 +1 x214 +1 x215 +1 x216 +1 x217 +1 x218 +1 x219 +1 x220 +1 x221 +1 x222 +1 x223 +1 x224 +1 x225 = 0;
* Conflict Constraints
 +1 ~x53 +1 ~x1 >= 1;
 +1 ~x54 +1 ~x2 >= 1;
 +1 ~x55 +1 ~x3 >= 1;
 +1 ~x56 +1 ~x4 >= 1;
 +1 ~x57 +1 ~x5 >= 1;
 +1 ~x58 +1 ~x6 >= 1;
 +1 ~x90 +1 ~x53 >= 1;
 +1 ~x91 +1 ~x54 >= 1;
 +1 ~x99 +1 ~x55 >= 1;
 +1 ~x100 +1 ~x56 >= 1;
 +1 ~x101 +1 ~x57 >= 1;
 +1 ~x102 +1 ~x58 >= 1;
 +1 ~x132 +1 ~x1 >= 1;
 +1 ~x133 +1 ~x2 >= 1;
 +1 ~x134 +1 ~x3 >= 1;
 +1 ~x135 +1 ~x4 >= 1;
 +1 ~x136 +1 ~x5 >= 1;
 +1 ~x137 +1 ~x6 >= 1;
 +1 ~x132 +1 ~x53 >= 1;
 +1 ~x133 +1 ~x54 >= 1;
 +1 ~x134 +1 ~x55 >= 1;
 +1 ~x135 +1 ~x56 >= 1;
 +1 ~x136 +1 ~x57 >= 1;
 +1 ~x137 +1 ~x58 >= 1;
 +1 ~x132 +1 ~x90 >= 1;
 +1 ~x133 +1 ~x91 >= 1;
 +1 ~x134 +1 ~x99 >= 1;
 +1 ~x135 +1 ~x100 >= 1;
 +1 ~x136 +1 ~x101 >= 1;
 +1 ~x137 +1 ~x102 >= 1;
* Usage Constraints
 +1 ~x8 +1 ~x53 >= 1;
 +1 ~x9 +1 ~x54 >= 1;
 +1 ~x18 +1 ~x55 >= 1;
 +1 ~x19 +1 ~x56 >= 1;
 +1 ~x20 +1 ~x57 >= 1;
 +1 ~x21 +1 ~x58 >= 1;
 +1 ~x23 +1 ~x53 >= 1;
 +1 ~x24 +1 ~x54 >= 1;
 +1 ~x33 +1 ~x55 >= 1;
 +1 ~x34 +1 ~x56 >= 1;
 +1 ~x35 +1 ~x57 >= 1;
 +1 ~x36 +1 ~x58 >= 1;
 +1 ~x23 +1 ~x132 >= 1;
 +1 ~x24 +1 ~x133 >= 1;
 +1 ~x33 +1 ~x134 >= 1;
 +1 ~x34 +1 ~x135 >= 1;
 +1 ~x35 +1 ~x136 >= 1;
 +1 ~x36 +1 ~x137 >= 1;
 +1 ~x38 +1 ~x53 >= 1;
 +1 ~x39 +1 ~x54 >= 1;
 +1 ~x48 +1 ~x55 >= 1;
 +1 ~x49 +1 ~x56 >= 1;
 +1 ~x50 +1 ~x57 >= 1;
 +1 ~x51 +1 ~x58 >= 1;
 +1 ~x38 +1 ~x132 >= 1;
 +1 ~x39 +1 ~x133 >= 1;
 +1 ~x48 +1 ~x134 >= 1;
 +1 ~x49 +1 ~x135 >= 1;
 +1 ~x50 +1 ~x136 >= 1;
 +1 ~x51 +1 ~x137 >= 1;
 +1 ~x59 +1 ~x89 >= 1;
 +1 ~x60 +1 ~x90 >= 1;
 +1 ~x61 +1 ~x91 >= 1;
 +1 ~x62 +1 ~x92 >= 1;
 +1 ~x63 +1 ~x93 >= 1;
 +1 ~x64 +1 ~x94 >= 1;
 +1 ~x65 +1 ~x95 >= 1;
 +1 ~x66 +1 ~x96 >= 1;
 +1 ~x67 +1 ~x97 >= 1;
 +1 ~x68 +1 ~x98 >= 1;
 +1 ~x69 +1 ~x99 >= 1;
 +1 ~x70 +1 ~x100 >= 1;
 +1 ~x71 +1 ~x101 >= 1;
 +1 ~x72 +1 ~x102 >= 1;
 +1 ~x60 +1 ~x132 >= 1;
 +1 ~x61 +1 ~x133 >= 1;
 +1 ~x69 +1 ~x134 >= 1;
 +1 ~x70 +1 ~x135 >= 1;
 +1 ~x71 +1 ~x136 >= 1;
 +1 ~x72 +1 ~x137 >= 1;
 +1 ~x74 +1 ~x132 >= 1;
 +1 ~x75 +1 ~x133 >= 1;
 +1 ~x84 +1 ~x134 >= 1;
 +1 ~x85 +1 ~x135 >= 1;
 +1 ~x86 +1 ~x136 >= 1;
 +1 ~x87 +1 ~x137 >= 1;
 +1 ~x104 +1 ~x53 >= 1;
 +1 ~x105 +1 ~x54 >= 1;
 +1 ~x112 +1 ~x55 >= 1;
 +1 ~x113 +1 ~x56 >= 1;
 +1 ~x114 +1 ~x57 >= 1;
 +1 ~x115 +1 ~x58 >= 1;
 +1 ~x104 +1 ~x132 >= 1;
 +1 ~x105 +1 ~x133 >= 1;
 +1 ~x112 +1 ~x134 >= 1;
 +1 ~x113 +1 ~x135 >= 1;
 +1 ~x114 +1 ~x136 >= 1;
 +1 ~x115 +1 ~x137 >= 1;
 +1 ~x117 +1 ~x53 >= 1;
 +1 ~x118 +1 ~x54 >= 1;
 +1 ~x127 +1 ~x55 >= 1;
 +1 ~x128 +1 ~x56 >= 1;
 +1 ~x129 +1 ~x57 >= 1;
 +1 ~x130 +1 ~x58 >= 1;
 +1 ~x117 +1 ~x132 >= 1;
 +1 ~x118 +1 ~x133 >= 1;
 +1 ~x127 +1 ~x134 >= 1;
 +1 ~x128 +1 ~x135 >= 1;
 +1 ~x129 +1 ~x136 >= 1;
 +1 ~x130 +1 ~x137 >= 1;
 +1 ~x139 +1 ~x53 >= 1;
 +1 ~x140 +1 ~x54 >= 1;
 +1 ~x149 +1 ~x55 >= 1;
 +1 ~x150 +1 ~x56 >= 1;
 +1 ~x151 +1 ~x57 >= 1;
 +1 ~x152 +1 ~x58 >= 1;
 +1 ~x154 +1 ~x53 >= 1;
 +1 ~x155 +1 ~x54 >= 1;
 +1 ~x164 +1 ~x55 >= 1;
 +1 ~x165 +1 ~x56 >= 1;
 +1 ~x166 +1 ~x57 >= 1;
 +1 ~x167 +1 ~x58 >= 1;
 +1 ~x169 +1 ~x53 >= 1;
 +1 ~x170 +1 ~x54 >= 1;
 +1 ~x179 +1 ~x55 >= 1;
 +1 ~x180 +1 ~x56 >= 1;
 +1 ~x181 +1 ~x57 >= 1;
 +1 ~x182 +1 ~x58 >= 1;
 +1 ~x184 +1 ~x1 >= 1;
 +1 ~x185 +1 ~x2 >= 1;
 +1 ~x193 +1 ~x3 >= 1;
 +1 ~x194 +1 ~x4 >= 1;
 +1 ~x195 +1 ~x5 >= 1;
 +1 ~x196 +1 ~x6 >= 1;
 +1 ~x184 +1 ~x53 >= 1;
 +1 ~x185 +1 ~x54 >= 1;
 +1 ~x193 +1 ~x55 >= 1;
 +1 ~x194 +1 ~x56 >= 1;
 +1 ~x195 +1 ~x57 >= 1;
 +1 ~x196 +1 ~x58 >= 1;
 +1 ~x212 +1 ~x1 >= 1;
 +1 ~x213 +1 ~x2 >= 1;
 +1 ~x222 +1 ~x3 >= 1;
 +1 ~x223 +1 ~x4 >= 1;
 +1 ~x224 +1 ~x5 >= 1;
 +1 ~x225 +1 ~x6 >= 1;
 +1 ~x212 +1 ~x53 >= 1;
 +1 ~x213 +1 ~x54 >= 1;
 +1 ~x222 +1 ~x55 >= 1;
 +1 ~x223 +1 ~x56 >= 1;
 +1 ~x224 +1 ~x57 >= 1;
 +1 ~x225 +1 ~x58 >= 1;
